<number of tasks>
50

<cycle time>
1000

<order strength>
0.198


<task times>
1 555
2 274
3 368
4 477
5 313
6 640
7 623
8 445
9 430
10 548
11 608
12 516
13 576
14 700
15 607
16 491
17 578
18 729
19 507
20 336
21 186
22 407
23 467
24 598
25 588
26 382
27 635
28 484
29 602
30 678
31 414
32 495
33 414
34 372
35 586
36 766
37 319
38 513
39 394
40 439
41 414
42 399
43 469
44 678
45 286
46 551
47 553
48 313
49 534
50 677

<precedence relations>
1,7
2,8
3,6
3,10
3,11
3,23
4,31
4,35
5,9
5,41
6,12
7,13
8,14
9,15
10,15
11,36
12,17
13,16
14,18
14,19
14,20
14,23
15,21
15,22
15,24
16,26
17,27
18,25
18,28
19,49
20,50
21,29
21,31
22,32
22,42
23,28
24,30
25,33
26,34
27,35
31,36
33,37
34,38
35,39
35,40
35,41
36,42
36,43
36,44
36,45
37,46
38,49
39,47
40,48
44,50

<end>
